param q1 := 2;
param q2 := 2;

param nSCEN := 3;
set SCEN := 1 2 3;

param omega1 :=
1 1
2 2.5
3 4
;

param omega2 :=
1 0.33333333
2 0.66666667
3 1
;

param p :=
1 0.33333333
2 0.33333333
3 0.33333333
;
